
  32    1
  10

   0   0   3 2 3 4 
   1   4   3 8 7 5 
  10   6   4 12 10 9 6 
   7  10   1 5 
   4   7   4 14 12 10 9 
   2   2   4 15 14 13 11 
  10  10   2 13 11 
   2   7   4 18 17 16 15 
   5   8   1 11 
   3   8   1 11 
   4   6   3 18 17 16 
   4  10   2 22 13 
   3   7   3 27 18 16 
   9   9   4 27 22 19 18 
   6   6   6 27 24 23 22 21 19 
   7  10   4 23 21 20 19 
   8  10   5 27 25 24 22 21 
   7  10   2 23 20 
   4   9   2 29 25 
   9   7   2 29 24 
   6  10   2 29 26 
   1  10   2 29 26 
   1   8   2 29 28 
   1   9   1 26 
   6   9   1 26 
   6   7   2 30 28 
   2  10   2 30 28 
   4   7   1 31 
   7   6   1 30 
   3   8   1 32
   9  10   1 32
   0   0   0 
